NAME : compression
TYPE : TSP
DIMENSION : 50
EDGE_WEIGHT_TYPE : EUC_2D
NODE_COORD_SECTION
1 209848 713499
2 251597 584744
3 686874 164132
4 192308 647304
5 430026 441483
6 146608 702399
7 302043 616040
8 9747 322986
9 687054 235113
10 785356 181372
11 234143 676491
12 524208 440982
13 122577 636162
14 311293 478266
15 542931 350831
16 160918 749988
17 547894 563430
18 775870 578880
19 790137 920461
20 415679 544011
21 162651 644267
22 182823 637845
23 510695 456698
24 533405 404423
25 77279 513741
26 308083 167414
27 611426 235655
28 150671 721047
29 506738 481946
30 127399 655312
31 852850 911752
32 885897 442293
33 127776 656375
34 876094 490218
35 255869 140660
36 19618 771418
37 130890 593357
38 628513 489241
39 43355 444477
40 673723 659533
41 796831 959005
42 902453 922097
43 157760 638685
44 801343 850284
45 776591 483948
46 120395 635526
47 988488 918496
48 284735 558138
49 784611 156784
50 297236 713769
EOF
